
  27    4
   1   1   1   1

   0   0   0   0   0  13 2 3 4 5 6 7 9 10 11 23 24 25 26 
   6   0   1   1   1   6   18   16   15   14   13   12
   9   0   0   1   0   5   22   17   16   15   13
   1   1   1   0   0   4   16   14   13   8
   1   1   1   0   0   4   21   20   13   12
   9   1   0   0   1   4   19   14   13   12
   4   0   0   1   1   2   18   12
   8   0   0   1   1   1   17
   8   0   1   0   1   1   15
   10   0   1   1   0   1   14
   10   0   1   1   0   1   12
   9   0   1   1   1   1   27
   6   0   0   1   0   1   27
   9   0   1   0   1   1   27
   7   1   0   0   1   1   27
   5   0   0   1   1   1   27
   2   1   1   0   1   1   27
   9   0   0   1   0   1   27
   6   1   0   1   1   1   27
   8   1   1   0   1   1   27
   5   0   0   1   0   1   27
   4   1   1   0   0   1   27
   1   1   0   0   0   1   27
   3   0   0   1   0   1   27
   10   0   1   1   1   1   27
   2   1   1   0   1   1   27
   0   0   0   0   0   0 
